NAME : PR135B.110763.tour
COMMENT : Cost = 0_110763
COMMENT : Found by LKH [Keld Helsgaun] Sun Sep 17 16:52:42 2017
TYPE : TOUR
DIMENSION : 135
TOUR_SECTION
1
5
18
29
19
17
7
8
2
16
20
31
26
27
37
52
61
75
74
83
85
98
105
108
109
116
121
87
76
93
92
100
91
90
89
79
78
88
81
77
69
66
58
59
48
42
43
35
44
45
56
57
54
47
32
23
14
21
24
25
15
9
10
3
11
12
4
13
22
33
34
46
55
67
68
80
101
115
122
126
133
125
124
132
123
114
102
113
112
103
111
110
127
134
129
119
117
107
106
118
131
130
135
128
120
104
99
86
82
70
94
95
96
97
84
72
73
71
64
62
63
51
38
39
50
40
41
60
65
53
49
36
30
28
6
-1
EOF
